p cnf 189 483
a 7 10 57 64 6 23 30 32 46 103 114 126 135 148 162 181 1 5 16 21 29 37 43 0
d 68 1 5 0
d 81 30 16 0
d 2 57 64 0
d 97 37 43 0
d 90 21 29 0
d 134 114 126 0
d 3 1 57 64 0
d 4 1 57 64 0
d 8 7 0
d 9 6 7 0
d 11 10 0
d 12 6 7 10 0
d 13 5 6 7 10 0
d 14 5 6 7 10 0
d 15 1 57 64 5 6 7 10 0
d 17 7 10 0
d 18 16 7 10 0
d 19 16 7 10 0
d 20 1 57 64 5 6 7 10 16 0
d 22 6 0
d 24 23 0
d 25 6 23 0
d 26 21 6 23 0
d 27 21 6 23 0
d 28 1 57 64 5 6 7 10 16 21 23 0
d 31 30 0
d 33 30 32 0
d 34 29 30 32 0
d 35 29 30 32 0
d 36 1 57 64 5 6 7 10 16 21 23 29 30 32 0
d 38 57 64 6 0
d 39 57 64 6 23 0
d 40 37 57 64 6 23 0
d 41 37 57 64 6 23 0
d 42 1 57 64 5 6 7 10 16 21 23 29 30 32 37 0
d 44 32 0
d 45 30 32 0
d 47 46 7 0
d 48 46 7 10 0
d 49 30 32 46 7 10 0
d 50 43 30 32 46 7 10 0
d 51 43 30 32 46 7 10 0
d 52 1 57 64 5 6 7 10 16 21 23 29 30 32 37 43 46 0
d 53 7 0
d 54 7 10 0
d 55 7 10 0
d 56 7 10 0
d 58 57 7 0
d 59 57 7 10 0
d 60 57 7 10 0
d 61 7 10 57 0
d 62 57 0
d 63 7 10 57 0
d 65 7 10 57 64 0
d 66 7 10 57 64 0
d 67 7 10 57 64 0
d 69 64 0
d 70 57 64 0
d 71 57 64 6 7 10 0
d 72 1 5 57 64 6 7 10 0
d 73 7 10 57 64 1 5 6 0
d 74 6 23 0
d 75 7 10 57 64 0
d 76 6 23 7 10 57 64 0
d 77 7 10 57 64 0
d 78 6 23 7 10 57 64 0
d 79 6 23 7 10 57 64 0
d 80 7 10 57 64 1 5 6 23 0
d 82 30 16 57 64 6 23 0
d 83 30 7 0
d 84 30 7 10 0
d 85 57 64 6 0
d 86 57 64 6 23 0
d 87 30 7 10 57 64 6 23 0
d 88 30 16 57 64 6 23 7 10 0
d 89 7 10 57 64 1 5 6 23 30 16 0
d 91 7 10 57 64 21 29 0
d 92 6 23 30 0
d 93 6 23 30 32 0
d 94 7 10 57 64 6 23 30 32 0
d 95 7 10 57 64 21 29 6 23 30 32 0
d 96 7 10 57 64 1 5 6 23 30 16 21 29 32 0
d 98 57 64 6 23 30 32 46 7 10 0
d 99 37 43 57 64 6 23 30 32 46 7 10 0
d 100 7 10 57 64 1 5 6 23 30 16 21 29 32 37 43 46 0
d 101 6 23 30 32 0
d 102 46 0
d 104 46 103 0
d 105 46 103 7 10 57 64 0
d 106 6 23 30 32 46 103 7 10 57 64 0
d 107 46 103 7 10 57 64 0
d 108 6 23 30 32 46 103 7 10 57 64 0
d 109 6 23 30 32 46 103 7 10 57 64 0
d 110 7 10 57 64 1 5 6 23 30 16 21 29 32 37 43 46 103 0
d 111 30 32 46 0
d 112 103 0
d 113 30 32 46 103 0
d 115 114 7 0
d 116 114 7 10 0
d 117 114 7 10 57 64 6 23 0
d 118 30 32 46 103 114 7 10 57 64 6 23 0
d 119 114 7 10 57 64 6 23 0
d 120 30 32 46 103 114 7 10 57 64 6 23 0
d 121 30 32 46 103 114 7 10 57 64 6 23 0
d 122 7 10 57 64 1 5 6 23 30 16 21 29 32 37 43 46 103 114 0
d 123 46 103 0
d 124 114 0
d 125 46 103 114 0
d 127 46 103 114 126 0
d 128 7 10 57 64 6 23 30 32 0
d 129 46 103 114 126 7 10 57 64 6 23 30 32 0
d 130 7 10 57 64 6 23 30 32 0
d 131 46 103 114 126 7 10 57 64 6 23 30 32 0
d 132 46 103 114 126 7 10 57 64 6 23 30 32 0
d 133 7 10 57 64 1 5 6 23 30 16 21 29 32 37 43 46 103 114 126 0
d 136 135 7 0
d 137 135 7 10 0
d 138 114 126 135 7 10 0
d 139 57 64 6 23 30 32 46 103 0
d 140 114 126 135 7 10 57 64 6 23 30 32 46 103 0
d 141 126 0
d 142 114 126 0
d 143 114 126 135 7 10 0
d 144 57 64 6 23 30 32 46 103 0
d 145 114 126 135 7 10 57 64 6 23 30 32 46 103 0
d 146 114 126 135 7 10 57 64 6 23 30 32 46 103 0
d 147 7 10 57 64 1 5 6 23 30 16 21 29 32 37 43 46 103 114 126 135 0
d 149 135 148 0
d 150 135 148 7 10 57 64 0
d 151 46 103 114 126 0
d 152 6 23 30 32 46 103 114 126 0
d 153 135 148 7 10 57 64 6 23 30 32 46 103 114 126 0
d 154 135 0
d 155 135 148 0
d 156 135 148 7 10 57 64 0
d 157 46 103 114 126 0
d 158 6 23 30 32 46 103 114 126 0
d 159 135 148 7 10 57 64 6 23 30 32 46 103 114 126 0
d 160 135 148 7 10 57 64 6 23 30 32 46 103 114 126 0
d 161 7 10 57 64 1 5 6 23 30 16 21 29 32 37 43 46 103 114 126 135 148 0
d 163 162 7 0
d 164 162 7 10 0
d 165 162 7 10 57 64 6 23 0
d 166 114 126 135 0
d 167 148 0
d 168 114 126 135 148 0
d 169 30 32 46 103 114 126 135 148 0
d 170 162 7 10 57 64 6 23 30 32 46 103 114 126 135 148 0
d 171 162 7 10 57 64 6 23 0
d 172 114 126 135 0
d 173 114 126 135 148 0
d 174 30 32 46 103 114 126 135 148 0
d 175 162 7 10 57 64 6 23 30 32 46 103 114 126 135 148 0
d 176 162 7 10 57 64 6 23 30 32 46 103 114 126 135 148 0
d 177 7 10 57 64 1 5 6 23 30 16 21 29 32 37 43 46 103 114 126 135 148 162 0
d 178 135 148 0
d 179 162 0
d 180 135 148 162 0
d 182 135 148 162 181 0
d 183 46 103 114 126 135 148 162 181 0
d 184 7 10 57 64 6 23 30 32 46 103 114 126 135 148 162 181 0
d 185 46 103 114 126 135 148 162 181 0
d 186 7 10 57 64 6 23 30 32 46 103 114 126 135 148 162 181 0
d 187 7 10 57 64 6 23 30 32 46 103 114 126 135 148 162 181 0
d 188 7 10 57 64 1 5 6 23 30 16 21 29 32 37 43 46 103 114 126 135 148 162 181 0
d 189 1 57 64 5 6 7 10 16 21 23 29 30 32 37 43 46 103 114 126 135 148 162 181 0
3 -1 -2 0
3 1 2 0
-3 -1 2 0
-3 1 -2 0
4 3 0
-4 -3 0
8 7 0
-8 -7 0
-9 6 0
-9 8 0
9 -6 -8 0
11 10 0
-11 -10 0
-12 9 0
-12 11 0
12 -9 -11 0
13 -5 -12 0
13 5 12 0
-13 -5 12 0
-13 5 -12 0
14 13 0
-14 -13 0
15 -4 0
15 -14 0
-15 4 14 0
-17 8 0
-17 11 0
17 -8 -11 0
18 -16 -17 0
18 16 17 0
-18 -16 17 0
-18 16 -17 0
19 18 0
-19 -18 0
20 -15 0
20 -19 0
-20 15 19 0
22 6 0
-22 -6 0
24 23 0
-24 -23 0
-25 22 0
-25 24 0
25 -22 -24 0
26 -21 -25 0
26 21 25 0
-26 -21 25 0
-26 21 -25 0
27 26 0
-27 -26 0
28 -20 0
28 -27 0
-28 20 27 0
31 30 0
-31 -30 0
-33 31 0
-33 32 0
33 -31 -32 0
34 -29 -33 0
34 29 33 0
-34 -29 33 0
-34 29 -33 0
35 34 0
-35 -34 0
36 -28 0
36 -35 0
-36 28 35 0
-38 2 0
-38 22 0
38 -2 -22 0
-39 38 0
-39 24 0
39 -38 -24 0
40 -37 -39 0
40 37 39 0
-40 -37 39 0
-40 37 -39 0
41 40 0
-41 -40 0
42 -36 0
42 -41 0
-42 36 41 0
44 32 0
-44 -32 0
-45 31 0
-45 44 0
45 -31 -44 0
-47 46 0
-47 8 0
47 -46 -8 0
-48 47 0
-48 11 0
48 -47 -11 0
-49 45 0
-49 48 0
49 -45 -48 0
50 -43 -49 0
50 43 49 0
-50 -43 49 0
-50 43 -49 0
51 50 0
-51 -50 0
52 -42 0
52 -51 0
-52 42 51 0
53 -7 -7 0
53 7 7 0
-53 -7 7 0
-53 7 -7 0
-54 8 0
-54 10 0
54 -8 -10 0
55 -54 -54 0
55 54 54 0
-55 -54 54 0
-55 54 -54 0
-56 53 0
-56 55 0
56 -53 -55 0
-58 57 0
-58 8 0
58 -57 -8 0
-59 58 0
-59 11 0
59 -58 -11 0
60 -59 -59 0
60 59 59 0
-60 -59 59 0
-60 59 -59 0
-61 56 0
-61 60 0
61 -56 -60 0
62 57 0
-62 -57 0
-63 17 0
-63 62 0
63 -17 -62 0
-65 63 0
-65 64 0
65 -63 -64 0
66 -65 -65 0
66 65 65 0
-66 -65 65 0
-66 65 -65 0
-67 61 0
-67 66 0
67 -61 -66 0
69 64 0
-69 -64 0
-70 62 0
-70 69 0
70 -62 -69 0
-71 70 0
-71 12 0
71 -70 -12 0
72 -68 -71 0
72 68 71 0
-72 -68 71 0
-72 68 -71 0
-73 67 0
-73 72 0
73 -67 -72 0
-74 22 0
-74 23 0
74 -22 -23 0
-75 17 0
-75 2 0
75 -17 -2 0
-76 74 0
-76 75 0
76 -74 -75 0
-77 63 0
-77 69 0
77 -63 -69 0
-78 74 0
-78 77 0
78 -74 -77 0
79 -76 -78 0
79 76 78 0
-79 -76 78 0
-79 76 -78 0
-80 73 0
-80 79 0
80 -73 -79 0
-82 81 0
-82 39 0
82 -81 -39 0
-83 30 0
-83 8 0
83 -30 -8 0
-84 83 0
-84 11 0
84 -83 -11 0
-85 70 0
-85 22 0
85 -70 -22 0
-86 85 0
-86 24 0
86 -85 -24 0
-87 84 0
-87 86 0
87 -84 -86 0
88 -82 -87 0
88 82 87 0
-88 -82 87 0
-88 82 -87 0
-89 80 0
-89 88 0
89 -80 -88 0
-91 75 0
-91 90 0
91 -75 -90 0
-92 25 0
-92 31 0
92 -25 -31 0
-93 92 0
-93 32 0
93 -92 -32 0
-94 77 0
-94 93 0
94 -77 -93 0
95 -91 -94 0
95 91 94 0
-95 -91 94 0
-95 91 -94 0
-96 89 0
-96 95 0
96 -89 -95 0
-98 86 0
-98 49 0
98 -86 -49 0
99 -97 -98 0
99 97 98 0
-99 -97 98 0
-99 97 -98 0
-100 96 0
-100 99 0
100 -96 -99 0
-101 92 0
-101 44 0
101 -92 -44 0
102 46 0
-102 -46 0
-104 102 0
-104 103 0
104 -102 -103 0
-105 104 0
-105 75 0
105 -104 -75 0
-106 101 0
-106 105 0
106 -101 -105 0
-107 104 0
-107 77 0
107 -104 -77 0
-108 101 0
-108 107 0
108 -101 -107 0
109 -106 -108 0
109 106 108 0
-109 -106 108 0
-109 106 -108 0
-110 100 0
-110 109 0
110 -100 -109 0
-111 45 0
-111 102 0
111 -45 -102 0
112 103 0
-112 -103 0
-113 111 0
-113 112 0
113 -111 -112 0
-115 114 0
-115 8 0
115 -114 -8 0
-116 115 0
-116 11 0
116 -115 -11 0
-117 116 0
-117 39 0
117 -116 -39 0
-118 113 0
-118 117 0
118 -113 -117 0
-119 116 0
-119 86 0
119 -116 -86 0
-120 113 0
-120 119 0
120 -113 -119 0
121 -118 -120 0
121 118 120 0
-121 -118 120 0
-121 118 -120 0
-122 110 0
-122 121 0
122 -110 -121 0
-123 102 0
-123 112 0
123 -102 -112 0
124 114 0
-124 -114 0
-125 123 0
-125 124 0
125 -123 -124 0
-127 125 0
-127 126 0
127 -125 -126 0
-128 75 0
-128 101 0
128 -75 -101 0
-129 127 0
-129 128 0
129 -127 -128 0
-130 77 0
-130 101 0
130 -77 -101 0
-131 127 0
-131 130 0
131 -127 -130 0
132 -129 -131 0
132 129 131 0
-132 -129 131 0
-132 129 -131 0
-133 122 0
-133 132 0
133 -122 -132 0
-136 135 0
-136 8 0
136 -135 -8 0
-137 136 0
-137 11 0
137 -136 -11 0
-138 134 0
-138 137 0
138 -134 -137 0
-139 39 0
-139 113 0
139 -39 -113 0
-140 138 0
-140 139 0
140 -138 -139 0
141 126 0
-141 -126 0
-142 124 0
-142 141 0
142 -124 -141 0
-143 142 0
-143 137 0
143 -142 -137 0
-144 86 0
-144 113 0
144 -86 -113 0
-145 143 0
-145 144 0
145 -143 -144 0
146 -140 -145 0
146 140 145 0
-146 -140 145 0
-146 140 -145 0
-147 133 0
-147 146 0
147 -133 -146 0
149 -135 -148 0
149 135 148 0
-149 -135 148 0
-149 135 -148 0
-150 149 0
-150 75 0
150 -149 -75 0
-151 123 0
-151 134 0
151 -123 -134 0
-152 101 0
-152 151 0
152 -101 -151 0
-153 150 0
-153 152 0
153 -150 -152 0
154 135 0
-154 -135 0
-155 154 0
-155 148 0
155 -154 -148 0
-156 155 0
-156 77 0
156 -155 -77 0
-157 125 0
-157 141 0
157 -125 -141 0
-158 101 0
-158 157 0
158 -101 -157 0
-159 156 0
-159 158 0
159 -156 -158 0
160 -153 -159 0
160 153 159 0
-160 -153 159 0
-160 153 -159 0
-161 147 0
-161 160 0
161 -147 -160 0
-163 162 0
-163 8 0
163 -162 -8 0
-164 163 0
-164 11 0
164 -163 -11 0
-165 164 0
-165 39 0
165 -164 -39 0
-166 134 0
-166 154 0
166 -134 -154 0
167 148 0
-167 -148 0
-168 166 0
-168 167 0
168 -166 -167 0
-169 113 0
-169 168 0
169 -113 -168 0
-170 165 0
-170 169 0
170 -165 -169 0
-171 164 0
-171 86 0
171 -164 -86 0
-172 142 0
-172 154 0
172 -142 -154 0
-173 172 0
-173 167 0
173 -172 -167 0
-174 113 0
-174 173 0
174 -113 -173 0
-175 171 0
-175 174 0
175 -171 -174 0
176 -170 -175 0
176 170 175 0
-176 -170 175 0
-176 170 -175 0
-177 161 0
-177 176 0
177 -161 -176 0
-178 154 0
-178 167 0
178 -154 -167 0
179 162 0
-179 -162 0
-180 178 0
-180 179 0
180 -178 -179 0
-182 180 0
-182 181 0
182 -180 -181 0
-183 151 0
-183 182 0
183 -151 -182 0
-184 128 0
-184 183 0
184 -128 -183 0
-185 157 0
-185 182 0
185 -157 -182 0
-186 130 0
-186 185 0
186 -130 -185 0
187 -184 -186 0
187 184 186 0
-187 -184 186 0
-187 184 -186 0
-188 177 0
-188 187 0
188 -177 -187 0
189 -52 0
189 -188 0
-189 52 188 0
189 0
